alpha                                   
   1.00000000000000     
     6.3970000000000002    0.0000000000000000    0.0000000000000000
     0.0000000000000000    6.3970000000000002    0.0000000000000000
     0.0000000000000000    0.0000000000000000    6.3970000000000002
   C    N    H    Pb   I 
     1     2     5     1     3
Direct
  0.5000000000000000  0.5791657615399253  0.5000000000000000
  0.6823003324908131  0.4856910139784091  0.5000000000000000
  0.3176996675093809  0.4856910139784091  0.5000000000000000
  0.5000000000000000  0.7499413061555974  0.5000000000000000
  0.8123259981064312  0.5773088857898842  0.5000000000000000
  0.1876740018935881  0.5773088857898842  0.5000000000000000
  0.7020377893888269  0.3274680740837035  0.5000000000000000
  0.2979622106111325  0.3274680740837035  0.5000000000000000
  0.0000000000000000 -0.0020372392297681  0.0000000000000000
  0.5000000000000000  0.0089890688129095  0.0000000000000000
  0.0000000000000000  0.4955349889256681  0.0000000000000000
  0.0000000000000000 -0.0211991862788704  0.5000000000000000
